4 
5  23 36 
6  00 16 31 45 
7  00 18 33 48 
8  03 18 33 48 
9  03 18 33 48 
10  03 20 35 50 
11  05 20 35 50 
12  05 20 35 50 
13  05 20 36 51 
14  06 21 36 51 
15  06 20 34 49 
16  04 19 34 49 
17  04 19 34 49 
18  04 19 34 49 
19  04 20 34 49 
20  04 18 33 48 
21  03 18 33 48 
22  18 
23  
0  
1 
